results_rootrelaxation/bin012_060_015.srr.sol
solution status: optimal solution found
objective value:                     2.69411764705882
_var691_                            0.247058823529412 	(obj:2)
_var721_                            0.486274509803921 	(obj:0)
_var734_                            0.117647058823529 	(obj:1)
_var738_                            0.211764705882353 	(obj:0)
_var739_                            0.211764705882353 	(obj:0)
_var741_                           0.0862745098039219 	(obj:0)
_var742_                             0.12156862745098 	(obj:0)
_var744_                           0.0470588235294123 	(obj:0)
_var747_                           0.0705882352941178 	(obj:0)
_var748_                            0.513725490196078 	(obj:0)
_var755_                           0.0352941176470591 	(obj:0)
_var764_                           0.0117647058823531 	(obj:0)
_var767_                            0.462745098039215 	(obj:0)
_var768_                            0.200000000000001 	(obj:1)
_var774_                           0.0431372549019605 	(obj:0)
_var784_                           0.0745098039215685 	(obj:1)
_var788_                            0.364705882352941 	(obj:0)
_var791_                           0.0509803921568631 	(obj:0)
_var792_                            0.435294117647059 	(obj:0)
_var794_                            0.341176470588235 	(obj:0)
_var806_                           0.0705882352941178 	(obj:0)
_var807_                           0.0941176470588233 	(obj:0)
_var814_                           0.0509803921568627 	(obj:0)
_var816_                            0.141176470588235 	(obj:0)
_var819_                            0.031372549019607 	(obj:1)
_var829_                           0.0352941176470592 	(obj:0)
_var831_                            0.129411764705882 	(obj:0)
_var833_                           0.0196078431372552 	(obj:0)
_var837_                            0.364705882352941 	(obj:1)
_var838_                            0.211764705882353 	(obj:0)
_var839_                             0.31764705882353 	(obj:0)
_var841_                           0.0470588235294121 	(obj:1)
_var845_                           0.0509803921568627 	(obj:1)
_var846_                            0.372549019607843 	(obj:0)
_var853_                            0.364705882352941 	(obj:1)
_var859_                            0.423529411764706 	(obj:0)
_var860_                           0.0941176470588235 	(obj:1)
_var861_                            0.537254901960784 	(obj:0)
_var867_                            0.211764705882353 	(obj:2)
_var873_                           0.0274509803921569 	(obj:0)
_var878_                           0.0470588235294114 	(obj:0)
_var884_                           0.0196078431372552 	(obj:1)
_var885_                           0.0588235294117646 	(obj:0)
_var886_                           0.0196078431372551 	(obj:0)
_var887_                           0.0235294117647057 	(obj:1)
_var892_                            0.274509803921569 	(obj:0)
_var899_                           0.0431372549019609 	(obj:0)
_var903_                           0.0705882352941178 	(obj:1)
_var906_                            0.447058823529412 	(obj:0)
_var907_                            0.388235294117647 	(obj:0)
_var909_                            0.364705882352941 	(obj:0)
_var911_                            0.274509803921569 	(obj:0)
_var912_                            0.105882352941176 	(obj:0)
_var913_                            0.305882352941176 	(obj:0)
_var914_                           0.0823529411764702 	(obj:2)
_var918_                            0.313725490196079 	(obj:0)
_var921_                           0.0745098039215686 	(obj:0)
_var922_                           0.0941176470588236 	(obj:0)
_var923_                           0.0392156862745102 	(obj:1)
_var925_                           0.0117647058823526 	(obj:1)
_var928_                           0.0784313725490194 	(obj:0)
_var930_                            0.101960784313725 	(obj:1)
_var931_                           0.0313725490196077 	(obj:0)
