results_rootrelaxation/bin012_060_015.srr.log
SCIP version 8.0.3.5 [precision: 8 byte] [memory: block] [mode: optimized] [LP solver: Soplex 6.0.1.3] [GitHash: 438792519e]
Copyright (c) 2002-2023 Zuse Institute Berlin (ZIB)

External libraries: 
  Readline 8.1         GNU library for command line editing (gnu.org/s/readline)
  Soplex 6.0.1.3       Linear Programming Solver developed at Zuse Institute Berlin (soplex.zib.de) [GitHash: 713be0fe]
  CppAD 20180000.0     Algorithmic Differentiation of C++ algorithms developed by B. Bell (github.com/coin-or/CppAD)
  ZLIB 1.2.11          General purpose compression library by J. Gailly and M. Adler (zlib.net)
  bliss 0.77           Computing Graph Automorphism Groups by T. Junttila and P. Kaski (www.tcs.hut.fi/Software/bliss/)

user parameter file <scip.set> not found - using default parameters

srr/relaxation = TRUE

read problem <instances/bin012_060_015.srr>
============

Original problem: 
original problem has 0 variables (0 bin, 0 int, 0 impl, 0 cont) and 77 constraints

presolving:
presolving (1 rounds: 1 fast, 1 medium, 1 exhaustive):
 0 deleted vars, 0 deleted constraints, 0 added constraints, 0 tightened bounds, 0 added holes, 0 changed sides, 0 changed coefficients
 0 implications, 0 cliques
presolved problem has 0 variables (0 bin, 0 int, 0 impl, 0 cont) and 77 constraints
     77 constraints of type <linear>
Presolving Time: 0.00

 time | node  | left  |LP iter|LP it/n|mem/heur|mdpt |vars |cons |rows |cuts |sepa|confs|strbr|  dualbound   | primalbound  |  gap   | compl. 
  0.0s|     1 |     0 |     1 |     - |   710k |   0 |   1 |  77 |  77 |   0 |  0 |   0 |   0 |      --      |      --      |    Inf | unknown
r 0.0s|     1 |     0 |   985 |     - |simplero|   0 | 706 |  77 |  77 |   0 |  0 |   0 |   0 |      --      | 1.989241e+01 |    Inf | unknown
r 0.0s|     1 |     0 |  1012 |     - |simplero|   0 | 717 |  77 |  77 |   0 |  0 |   0 |   0 |      --      | 1.902145e+01 |    Inf | unknown
r 0.0s|     1 |     0 |  1081 |     - |simplero|   0 | 728 |  77 |  77 |   0 |  0 |   0 |   0 |      --      | 1.625608e+01 |    Inf | unknown
r 0.1s|     1 |     0 |  1148 |     - |simplero|   0 | 739 |  77 |  77 |   0 |  0 |   0 |   0 |      --      | 1.389678e+01 |    Inf | unknown
r 0.1s|     1 |     0 |  1206 |     - |simplero|   0 | 750 |  77 |  77 |   0 |  0 |   0 |   0 |      --      | 1.131803e+01 |    Inf | unknown
r 0.1s|     1 |     0 |  1253 |     - |simplero|   0 | 761 |  77 |  77 |   0 |  0 |   0 |   0 |      --      | 1.005943e+01 |    Inf | unknown
r 0.1s|     1 |     0 |  1299 |     - |simplero|   0 | 772 |  77 |  77 |   0 |  0 |   0 |   0 |      --      | 8.334590e+00 |    Inf | unknown
r 0.1s|     1 |     0 |  1317 |     - |simplero|   0 | 772 |  77 |  77 |   0 |  0 |   0 |   0 |      --      | 8.081531e+00 |    Inf | unknown
r 0.1s|     1 |     0 |  1320 |     - |simplero|   0 | 772 |  77 |  77 |   0 |  0 |   0 |   0 |      --      | 8.073759e+00 |    Inf | unknown
r 0.1s|     1 |     0 |  1366 |     - |simplero|   0 | 783 |  77 |  77 |   0 |  0 |   0 |   0 |      --      | 6.853748e+00 |    Inf | unknown
r 0.1s|     1 |     0 |  1397 |     - |simplero|   0 | 783 |  77 |  77 |   0 |  0 |   0 |   0 |      --      | 6.647472e+00 |    Inf | unknown
r 0.1s|     1 |     0 |  1433 |     - |simplero|   0 | 794 |  77 |  77 |   0 |  0 |   0 |   0 |      --      | 5.521762e+00 |    Inf | unknown
r 0.1s|     1 |     0 |  1443 |     - |simplero|   0 | 794 |  77 |  77 |   0 |  0 |   0 |   0 |      --      | 5.447528e+00 |    Inf | unknown
r 0.1s|     1 |     0 |  1445 |     - |simplero|   0 | 794 |  77 |  77 |   0 |  0 |   0 |   0 |      --      | 5.444800e+00 |    Inf | unknown
 time | node  | left  |LP iter|LP it/n|mem/heur|mdpt |vars |cons |rows |cuts |sepa|confs|strbr|  dualbound   | primalbound  |  gap   | compl. 
r 0.1s|     1 |     0 |  1471 |     - |simplero|   0 | 805 |  77 |  77 |   0 |  0 |   0 |   0 |      --      | 4.922795e+00 |    Inf | unknown
r 0.1s|     1 |     0 |  1483 |     - |simplero|   0 | 805 |  77 |  77 |   0 |  0 |   0 |   0 |      --      | 4.782747e+00 |    Inf | unknown
r 0.1s|     1 |     0 |  1525 |     - |simplero|   0 | 816 |  77 |  77 |   0 |  0 |   0 |   0 |      --      | 4.291520e+00 |    Inf | unknown
r 0.1s|     1 |     0 |  1567 |     - |simplero|   0 | 827 |  77 |  77 |   0 |  0 |   0 |   0 |      --      | 3.918864e+00 |    Inf | unknown
r 0.1s|     1 |     0 |  1591 |     - |simplero|   0 | 838 |  77 |  77 |   0 |  0 |   0 |   0 |      --      | 3.760981e+00 |    Inf | unknown
r 0.1s|     1 |     0 |  1607 |     - |simplero|   0 | 838 |  77 |  77 |   0 |  0 |   0 |   0 |      --      | 3.724329e+00 |    Inf | unknown
r 0.1s|     1 |     0 |  1624 |     - |simplero|   0 | 849 |  77 |  77 |   0 |  0 |   0 |   0 |      --      | 3.537885e+00 |    Inf | unknown
r 0.1s|     1 |     0 |  1664 |     - |simplero|   0 | 860 |  77 |  77 |   0 |  0 |   0 |   0 |      --      | 3.301829e+00 |    Inf | unknown
r 0.1s|     1 |     0 |  1698 |     - |simplero|   0 | 871 |  77 |  77 |   0 |  0 |   0 |   0 |      --      | 2.966468e+00 |    Inf | unknown
r 0.1s|     1 |     0 |  1717 |     - |simplero|   0 | 880 |  77 |  77 |   0 |  0 |   0 |   0 |      --      | 2.899126e+00 |    Inf | unknown
r 0.1s|     1 |     0 |  1743 |     - |simplero|   0 | 890 |  77 |  77 |   0 |  0 |   0 |   0 |      --      | 2.847222e+00 |    Inf | unknown
r 0.1s|     1 |     0 |  1748 |     - |simplero|   0 | 890 |  77 |  77 |   0 |  0 |   0 |   0 |      --      | 2.844880e+00 |    Inf | unknown
r 0.1s|     1 |     0 |  1771 |     - |simplero|   0 | 899 |  77 |  77 |   0 |  0 |   0 |   0 |      --      | 2.820506e+00 |    Inf | unknown
r 0.1s|     1 |     0 |  1794 |     - |simplero|   0 | 905 |  77 |  77 |   0 |  0 |   0 |   0 |      --      | 2.777778e+00 |    Inf | unknown
r 0.1s|     1 |     0 |  1817 |     - |simplero|   0 | 911 |  77 |  77 |   0 |  0 |   0 |   0 |      --      | 2.730435e+00 |    Inf | unknown
 time | node  | left  |LP iter|LP it/n|mem/heur|mdpt |vars |cons |rows |cuts |sepa|confs|strbr|  dualbound   | primalbound  |  gap   | compl. 
r 0.1s|     1 |     0 |  1820 |     - |simplero|   0 | 911 |  77 |  77 |   0 |  0 |   0 |   0 |      --      | 2.728571e+00 |    Inf | unknown
  0.1s|     1 |     0 |  1820 |     - |  4188k |   0 | 911 |  77 |  77 |   0 |  0 |   0 |   0 |      --      | 2.728571e+00 |    Inf | unknown
r 0.1s|     1 |     0 |  1829 |     - |simplero|   0 | 917 |  77 |  77 |   0 |  0 |   0 |   0 |      --      | 2.717949e+00 |    Inf | unknown
r 0.1s|     1 |     0 |  1836 |     - |simplero|   0 | 917 |  77 |  77 |   0 |  0 |   0 |   0 |      --      | 2.714964e+00 |    Inf | unknown
r 0.1s|     1 |     0 |  1854 |     - |simplero|   0 | 923 |  77 |  77 |   0 |  0 |   0 |   0 |      --      | 2.697248e+00 |    Inf | unknown
r 0.1s|     1 |     0 |  1862 |     - |simplero|   0 | 928 |  77 |  77 |   0 |  0 |   0 |   0 |      --      | 2.694737e+00 |    Inf | unknown
r 0.1s|     1 |     0 |  1867 |     - |simplero|   0 | 931 |  77 |  77 |   0 |  0 |   0 |   0 |      --      | 2.694323e+00 |    Inf | unknown
r 0.1s|     1 |     0 |  1868 |     - |simplero|   0 | 932 |  77 |  77 |   0 |  0 |   0 |   0 |      --      | 2.694118e+00 |    Inf | unknown
  0.1s|     1 |     0 |  1868 |     - |  4248k |   0 | 932 |  77 |  77 |   0 |  0 |   0 |   0 | 2.694118e+00 | 2.694118e+00 |   0.00%| unknown
  0.1s|     1 |     0 |  1868 |     - |  4248k |   0 | 932 |  77 |  77 |   0 |  0 |   0 |   0 | 2.694118e+00 | 2.694118e+00 |   0.00%| unknown

SCIP Status        : problem is solved [optimal solution found]
Solving Time (sec) : 0.09
Solving Nodes      : 1
Primal Bound       : +2.69411764705882e+00 (36 solutions)
Dual Bound         : +2.69411764705882e+00
Gap                : 0.00 %

written transformed problem to file <results_rootrelaxation/bin012_060_015.srr.lp>
written transformed problem to file <results_rootrelaxation/bin012_060_015.srr.cip>


SCIP version 8.0.3.5 [precision: 8 byte] [memory: block] [mode: optimized] [LP solver: Soplex 6.0.1.3] [GitHash: 438792519e]
Copyright (c) 2002-2023 Zuse Institute Berlin (ZIB)

External libraries: 
  Readline 8.1         GNU library for command line editing (gnu.org/s/readline)
  Soplex 6.0.1.3       Linear Programming Solver developed at Zuse Institute Berlin (soplex.zib.de) [GitHash: 713be0fe]
  CppAD 20180000.0     Algorithmic Differentiation of C++ algorithms developed by B. Bell (github.com/coin-or/CppAD)
  ZLIB 1.2.11          General purpose compression library by J. Gailly and M. Adler (zlib.net)
  bliss 0.77           Computing Graph Automorphism Groups by T. Junttila and P. Kaski (www.tcs.hut.fi/Software/bliss/)

user parameter file <scip.set> not found - using default parameters

srr/relaxation = TRUE

read problem <instances/bin012_060_015.srr>
============

Original problem: 
original problem has 0 variables (0 bin, 0 int, 0 impl, 0 cont) and 77 constraints

presolving:
presolving (1 rounds: 1 fast, 1 medium, 1 exhaustive):
 0 deleted vars, 0 deleted constraints, 0 added constraints, 0 tightened bounds, 0 added holes, 0 changed sides, 0 changed coefficients
 0 implications, 0 cliques
presolved problem has 0 variables (0 bin, 0 int, 0 impl, 0 cont) and 77 constraints
     77 constraints of type <linear>
Presolving Time: 0.00

 time | node  | left  |LP iter|LP it/n|mem/heur|mdpt |vars |cons |rows |cuts |sepa|confs|strbr|  dualbound   | primalbound  |  gap   | compl. 
  0.0s|     1 |     0 |     1 |     - |   710k |   0 |   1 |  77 |  77 |   0 |  0 |   0 |   0 |      --      |      --      |    Inf | unknown
r 0.0s|     1 |     0 |   985 |     - |simplero|   0 | 706 |  77 |  77 |   0 |  0 |   0 |   0 |      --      | 1.989241e+01 |    Inf | unknown
r 0.0s|     1 |     0 |  1012 |     - |simplero|   0 | 717 |  77 |  77 |   0 |  0 |   0 |   0 |      --      | 1.902145e+01 |    Inf | unknown
r 0.1s|     1 |     0 |  1081 |     - |simplero|   0 | 728 |  77 |  77 |   0 |  0 |   0 |   0 |      --      | 1.625608e+01 |    Inf | unknown
r 0.1s|     1 |     0 |  1148 |     - |simplero|   0 | 739 |  77 |  77 |   0 |  0 |   0 |   0 |      --      | 1.389678e+01 |    Inf | unknown
r 0.1s|     1 |     0 |  1206 |     - |simplero|   0 | 750 |  77 |  77 |   0 |  0 |   0 |   0 |      --      | 1.131803e+01 |    Inf | unknown
r 0.1s|     1 |     0 |  1253 |     - |simplero|   0 | 761 |  77 |  77 |   0 |  0 |   0 |   0 |      --      | 1.005943e+01 |    Inf | unknown
r 0.1s|     1 |     0 |  1299 |     - |simplero|   0 | 772 |  77 |  77 |   0 |  0 |   0 |   0 |      --      | 8.334590e+00 |    Inf | unknown
r 0.1s|     1 |     0 |  1317 |     - |simplero|   0 | 772 |  77 |  77 |   0 |  0 |   0 |   0 |      --      | 8.081531e+00 |    Inf | unknown
r 0.1s|     1 |     0 |  1320 |     - |simplero|   0 | 772 |  77 |  77 |   0 |  0 |   0 |   0 |      --      | 8.073759e+00 |    Inf | unknown
r 0.1s|     1 |     0 |  1366 |     - |simplero|   0 | 783 |  77 |  77 |   0 |  0 |   0 |   0 |      --      | 6.853748e+00 |    Inf | unknown
r 0.1s|     1 |     0 |  1397 |     - |simplero|   0 | 783 |  77 |  77 |   0 |  0 |   0 |   0 |      --      | 6.647472e+00 |    Inf | unknown
r 0.1s|     1 |     0 |  1433 |     - |simplero|   0 | 794 |  77 |  77 |   0 |  0 |   0 |   0 |      --      | 5.521762e+00 |    Inf | unknown
r 0.1s|     1 |     0 |  1443 |     - |simplero|   0 | 794 |  77 |  77 |   0 |  0 |   0 |   0 |      --      | 5.447528e+00 |    Inf | unknown
r 0.1s|     1 |     0 |  1445 |     - |simplero|   0 | 794 |  77 |  77 |   0 |  0 |   0 |   0 |      --      | 5.444800e+00 |    Inf | unknown
 time | node  | left  |LP iter|LP it/n|mem/heur|mdpt |vars |cons |rows |cuts |sepa|confs|strbr|  dualbound   | primalbound  |  gap   | compl. 
r 0.1s|     1 |     0 |  1471 |     - |simplero|   0 | 805 |  77 |  77 |   0 |  0 |   0 |   0 |      --      | 4.922795e+00 |    Inf | unknown
r 0.1s|     1 |     0 |  1483 |     - |simplero|   0 | 805 |  77 |  77 |   0 |  0 |   0 |   0 |      --      | 4.782747e+00 |    Inf | unknown
r 0.1s|     1 |     0 |  1525 |     - |simplero|   0 | 816 |  77 |  77 |   0 |  0 |   0 |   0 |      --      | 4.291520e+00 |    Inf | unknown
r 0.1s|     1 |     0 |  1567 |     - |simplero|   0 | 827 |  77 |  77 |   0 |  0 |   0 |   0 |      --      | 3.918864e+00 |    Inf | unknown
r 0.1s|     1 |     0 |  1591 |     - |simplero|   0 | 838 |  77 |  77 |   0 |  0 |   0 |   0 |      --      | 3.760981e+00 |    Inf | unknown
r 0.1s|     1 |     0 |  1607 |     - |simplero|   0 | 838 |  77 |  77 |   0 |  0 |   0 |   0 |      --      | 3.724329e+00 |    Inf | unknown
r 0.1s|     1 |     0 |  1624 |     - |simplero|   0 | 849 |  77 |  77 |   0 |  0 |   0 |   0 |      --      | 3.537885e+00 |    Inf | unknown
r 0.1s|     1 |     0 |  1664 |     - |simplero|   0 | 860 |  77 |  77 |   0 |  0 |   0 |   0 |      --      | 3.301829e+00 |    Inf | unknown
r 0.1s|     1 |     0 |  1698 |     - |simplero|   0 | 871 |  77 |  77 |   0 |  0 |   0 |   0 |      --      | 2.966468e+00 |    Inf | unknown
r 0.1s|     1 |     0 |  1717 |     - |simplero|   0 | 880 |  77 |  77 |   0 |  0 |   0 |   0 |      --      | 2.899126e+00 |    Inf | unknown
r 0.1s|     1 |     0 |  1743 |     - |simplero|   0 | 890 |  77 |  77 |   0 |  0 |   0 |   0 |      --      | 2.847222e+00 |    Inf | unknown
r 0.1s|     1 |     0 |  1748 |     - |simplero|   0 | 890 |  77 |  77 |   0 |  0 |   0 |   0 |      --      | 2.844880e+00 |    Inf | unknown
r 0.1s|     1 |     0 |  1771 |     - |simplero|   0 | 899 |  77 |  77 |   0 |  0 |   0 |   0 |      --      | 2.820506e+00 |    Inf | unknown
r 0.1s|     1 |     0 |  1794 |     - |simplero|   0 | 905 |  77 |  77 |   0 |  0 |   0 |   0 |      --      | 2.777778e+00 |    Inf | unknown
r 0.1s|     1 |     0 |  1817 |     - |simplero|   0 | 911 |  77 |  77 |   0 |  0 |   0 |   0 |      --      | 2.730435e+00 |    Inf | unknown
 time | node  | left  |LP iter|LP it/n|mem/heur|mdpt |vars |cons |rows |cuts |sepa|confs|strbr|  dualbound   | primalbound  |  gap   | compl. 
r 0.1s|     1 |     0 |  1820 |     - |simplero|   0 | 911 |  77 |  77 |   0 |  0 |   0 |   0 |      --      | 2.728571e+00 |    Inf | unknown
  0.1s|     1 |     0 |  1820 |     - |  4188k |   0 | 911 |  77 |  77 |   0 |  0 |   0 |   0 |      --      | 2.728571e+00 |    Inf | unknown
r 0.1s|     1 |     0 |  1829 |     - |simplero|   0 | 917 |  77 |  77 |   0 |  0 |   0 |   0 |      --      | 2.717949e+00 |    Inf | unknown
r 0.1s|     1 |     0 |  1836 |     - |simplero|   0 | 917 |  77 |  77 |   0 |  0 |   0 |   0 |      --      | 2.714964e+00 |    Inf | unknown
r 0.1s|     1 |     0 |  1854 |     - |simplero|   0 | 923 |  77 |  77 |   0 |  0 |   0 |   0 |      --      | 2.697248e+00 |    Inf | unknown
r 0.1s|     1 |     0 |  1862 |     - |simplero|   0 | 928 |  77 |  77 |   0 |  0 |   0 |   0 |      --      | 2.694737e+00 |    Inf | unknown
r 0.1s|     1 |     0 |  1867 |     - |simplero|   0 | 931 |  77 |  77 |   0 |  0 |   0 |   0 |      --      | 2.694323e+00 |    Inf | unknown
r 0.1s|     1 |     0 |  1868 |     - |simplero|   0 | 932 |  77 |  77 |   0 |  0 |   0 |   0 |      --      | 2.694118e+00 |    Inf | unknown
  0.1s|     1 |     0 |  1868 |     - |  4248k |   0 | 932 |  77 |  77 |   0 |  0 |   0 |   0 | 2.694118e+00 | 2.694118e+00 |   0.00%| unknown
  0.1s|     1 |     0 |  1868 |     - |  4248k |   0 | 932 |  77 |  77 |   0 |  0 |   0 |   0 | 2.694118e+00 | 2.694118e+00 |   0.00%| unknown

SCIP Status        : problem is solved [optimal solution found]
Solving Time (sec) : 0.09
Solving Nodes      : 1
Primal Bound       : +2.69411764705882e+00 (36 solutions)
Dual Bound         : +2.69411764705882e+00
Gap                : 0.00 %

written transformed problem to file <results_rootrelaxation/bin012_060_015.srr.lp>
written transformed problem to file <results_rootrelaxation/bin012_060_015.srr.cip>

written solution information to file <results_rootrelaxation/bin012_060_015.srr.sol>



